GLPSOL--GLPK LP/MIP Solver 5.0
Parameter(s) specified in the command line:
 --lp ../modeles/15_389.lp --log 15_389.log
Reading problem data from '../modeles/15_389.lp'...
5896 rows, 11700 columns, 40920 non-zeros
5835 integer variables, all of which are binary
17617 lines were read
GLPK Integer Optimizer 5.0
5896 rows, 11700 columns, 40920 non-zeros
5835 integer variables, all of which are binary
Preprocessing...
5790 constraint coefficient(s) were reduced
5896 rows, 11685 columns, 40905 non-zeros
5835 integer variables, all of which are binary
Scaling...
 A: min|aij| =  2.643e-05  max|aij| =  4.000e+00  ratio =  1.513e+05
GM: min|aij| =  5.070e-02  max|aij| =  1.972e+01  ratio =  3.890e+02
EQ: min|aij| =  2.571e-03  max|aij| =  1.000e+00  ratio =  3.890e+02
2N: min|aij| =  1.953e-03  max|aij| =  1.763e+00  ratio =  9.025e+02
Constructing initial basis...
Size of triangular part is 5896
Solving LP relaxation...
GLPK Simplex Optimizer 5.0
5896 rows, 11685 columns, 40905 non-zeros
      0: obj =   3.000000000e+01 inf =   7.450e+01 (31)
Perturbing LP to avoid stalling [199]...
    314: obj =   4.998050489e-01 inf =   0.000e+00 (0)
Removing LP perturbation [996]...
*   996: obj =  -3.872249357e+00 inf =   0.000e+00 (0) 1
OPTIMAL LP SOLUTION FOUND
Integer optimization begins...
Long-step dual simplex will be used
+   996: mip =     not found yet >=              -inf        (1; 0)
+  1170: mip =     not found yet >=  -3.872249357e+00        (175; 0)
+  1479: mip =     not found yet >=  -3.872249357e+00        (481; 0)
+  1550: >>>>>  -3.872249357e+00 >=  -3.872249357e+00   0.0% (550; 0)
+  1550: mip =  -3.872249357e+00 >=     tree is empty   0.0% (0; 1099)
INTEGER OPTIMAL SOLUTION FOUND
Time used:   11.4 secs
Memory used: 16.9 Mb (17719975 bytes)
